\ENCODING=ISO-8859-1
\Problem name: IloCplex

Minimize
 obj1: - 1.525 x_010 - 2.375 x_07 - 1.025 x_00 - 0.175 x_03 - 1.625 x_112
       - 0.175 x_13 - 0.513637787937534 x_08 - 3.225 x_04 - 0.075 x_01
       - 1.125 x_02 - 1.625 x_012 - 1.575 x_011 - 2.475 x_09 - 3.325 x_06
       - 3.275 x_05 - 0.513637787937534 x_18 - 3.225 x_14 - 0.075 x_11
       - 1.025 x_10 - 1.125 x_12 - 1.575 x_111 - 2.475 x_19 - 2.375 x_17
       - 3.325 x_16 - 3.275 x_15 - 1.525 x_110
Subject To
 c1:   u_00 + u_01 + u_03 + u_07 + u_012 <= 5.93048948781821
 c2:   u_00 + u_04 + u_06 <= 3.81071792490141
 c3:   u_00 + u_03 + u_012 <= 4.50219981344037
 c4:   u_00 + u_010 <= 5.49970603206171
 c5:   u_15 + u_17 <= 5.26164793580725
 c6:   u_11 + u_18 <= 5.35766330890644
 c7:   u_10 + u_19 <= 4.56892839673997
 c8:   u_18 + u_14 <= 5.85374437427121
 c9:   x_010 + x_07 + x_00 >= 1
 c10:  - 300 hap_1_0 + ap_0 <= 0
 c11:  x_010 + x_07 + x_00 + 2 hap_1_0 <= 3
 c12:  - x_03 >= -1
 c13:  - 300 han_2_0 + an_0 <= 0
 c14:  - x_03 + 2 han_2_0 <= 1
 c15:  x_112 >= 1
 c16:  - 300 hap_1_1 + ap_1 <= 0
 c17:  x_112 + 2 hap_1_1 <= 3
 c18:  - x_13 >= -1
 c19:  - 300 han_2_1 + an_1 <= 0
 c20:  - x_13 + 2 han_2_1 <= 1
 c21:  - x_00 + x_08 + x_04 - x_01 >= 0
 c22:  - 300 hb_00 + b_00 <= 0
 c23:  - x_00 + x_08 + x_04 - x_01 + 2 hb_00 <= 2
 c24:  x_03 - x_02 >= 0
 c25:  - 300 hb_01 + b_01 <= 0
 c26:  x_03 - x_02 + 2 hb_01 <= 2
 c27:  x_012 >= 0
 c28:  - 300 hb_03 + b_03 <= 0
 c29:  x_012 + 2 hb_03 <= 2
 c30:  - x_07 - x_04 + x_011 + x_09 - x_06 - x_05 >= 0
 c31:  - 300 hb_04 + b_04 <= 0
 c32:  - x_07 - x_04 + x_011 + x_09 - x_06 - x_05 + 2 hb_04 <= 2
 c33:  - x_08 - x_09 + x_06 >= 0
 c34:  - 300 hb_05 + b_05 <= 0
 c35:  - x_08 - x_09 + x_06 + 2 hb_05 <= 2
 c36:  - x_010 >= 0
 c37:  - 300 hb_06 + b_06 <= 0
 c38:  - x_010 + 2 hb_06 <= 2
 c39:  x_02 - x_011 >= 0
 c40:  - 300 hb_08 + b_08 <= 0
 c41:  x_02 - x_011 + 2 hb_08 <= 2
 c42:  x_01 - x_012 >= 0
 c43:  - 300 hb_09 + b_09 <= 0
 c44:  x_01 - x_012 + 2 hb_09 <= 2
 c45:  x_18 + x_14 - x_11 - x_10 >= 0
 c46:  - 300 hb_10 + b_10 <= 0
 c47:  x_18 + x_14 - x_11 - x_10 + 2 hb_10 <= 2
 c48:  x_13 - x_12 >= 0
 c49:  - 300 hb_11 + b_11 <= 0
 c50:  x_13 - x_12 + 2 hb_11 <= 2
 c51:  - x_14 + x_111 + x_19 - x_17 - x_16 - x_15 >= 0
 c52:  - 300 hb_14 + b_14 <= 0
 c53:  - x_14 + x_111 + x_19 - x_17 - x_16 - x_15 + 2 hb_14 <= 2
 c54:  - x_18 - x_19 + x_16 >= 0
 c55:  - 300 hb_15 + b_15 <= 0
 c56:  - x_18 - x_19 + x_16 + 2 hb_15 <= 2
 c57:  - x_110 >= 0
 c58:  - 300 hb_16 + b_16 <= 0
 c59:  - x_110 + 2 hb_16 <= 2
 c60:  x_10 + x_17 + x_110 >= 0
 c61:  - 300 hb_17 + b_17 <= 0
 c62:  x_10 + x_17 + x_110 + 2 hb_17 <= 2
 c63:  x_12 - x_111 >= 0
 c64:  - 300 hb_18 + b_18 <= 0
 c65:  x_12 - x_111 + 2 hb_18 <= 2
 c66:  - x_112 + x_11 >= 0
 c67:  - 300 hb_19 + b_19 <= 0
 c68:  - x_112 + x_11 + 2 hb_19 <= 2
 c69:  - u_00 + ap_0 - b_00 <= 0.975
 c70:  x_00 - 2 hdu_00 <= 0
 c71:  u_00 - ap_0 + b_00 + 300 hdu_00 <= 299.025
 c72:  - u_01 - b_00 + b_09 <= 1.925
 c73:  x_01 - 2 hdu_01 <= 0
 c74:  u_01 + b_00 - b_09 + 300 hdu_01 <= 298.075
 c75:  - b_01 + b_08 - u_02 <= 0.875
 c76:  x_02 - 2 hdu_02 <= 0
 c77:  b_01 - b_08 + u_02 + 300 hdu_02 <= 299.125
 c78:  - u_03 - an_0 + b_01 <= 2.825
 c79:  x_03 - 2 hdu_03 <= 0
 c80:  u_03 + an_0 - b_01 + 300 hdu_03 <= 297.175
 c81:  - u_04 + b_00 - b_04 <= -0.225
 c82:  x_04 - 2 hdu_04 <= 0
 c83:  u_04 - b_00 + b_04 + 300 hdu_04 <= 300.225
 c84:  - b_04 - u_05 <= -0.275
 c85:  x_05 - 2 hdu_05 <= 0
 c86:  b_04 + u_05 + 300 hdu_05 <= 300.275
 c87:  - u_06 - b_04 + b_05 <= -0.325
 c88:  x_06 - 2 hdu_06 <= 0
 c89:  u_06 + b_04 - b_05 + 300 hdu_06 <= 300.325
 c90:  - u_07 + ap_0 - b_04 <= 0.625
 c91:  x_07 - 2 hdu_07 <= 0
 c92:  u_07 - ap_0 + b_04 + 300 hdu_07 <= 299.375
 c93:  b_00 - b_05 - u_08 <= 1.48636221206247
 c94:  x_08 - 2 hdu_08 <= 0
 c95:  - b_00 + b_05 + u_08 + 300 hdu_08 <= 298.513637787938
 c96:  b_04 - b_05 - u_09 <= -0.475
 c97:  x_09 - 2 hdu_09 <= 0
 c98:  - b_04 + b_05 + u_09 + 300 hdu_09 <= 300.475
 c99:  - u_010 + ap_0 - b_06 <= -0.525
 c100: x_010 - 2 hdu_010 <= 0
 c101: u_010 - ap_0 + b_06 + 300 hdu_010 <= 300.525
 c102: b_04 - b_08 - u_011 <= 1.425
 c103: x_011 - 2 hdu_011 <= 0
 c104: - b_04 + b_08 + u_011 + 300 hdu_011 <= 298.575
 c105: - u_012 + b_03 - b_09 <= 0.375
 c106: x_012 - 2 hdu_012 <= 0
 c107: u_012 - b_03 + b_09 + 300 hdu_012 <= 299.625
 c108: - u_10 - b_10 + b_17 <= 0.975
 c109: x_10 - 2 hdu_10 <= 0
 c110: u_10 + b_10 - b_17 + 300 hdu_10 <= 299.025
 c111: - u_11 - b_10 + b_19 <= 1.925
 c112: x_11 - 2 hdu_11 <= 0
 c113: u_11 + b_10 - b_19 + 300 hdu_11 <= 298.075
 c114: - b_11 + b_18 - u_12 <= 0.875
 c115: x_12 - 2 hdu_12 <= 0
 c116: b_11 - b_18 + u_12 + 300 hdu_12 <= 299.125
 c117: - an_1 + b_11 - u_13 <= 2.825
 c118: x_13 - 2 hdu_13 <= 0
 c119: an_1 - b_11 + u_13 + 300 hdu_13 <= 297.175
 c120: - u_14 + b_10 - b_14 <= -0.225
 c121: x_14 - 2 hdu_14 <= 0
 c122: u_14 - b_10 + b_14 + 300 hdu_14 <= 300.225
 c123: - u_15 - b_14 <= -0.275
 c124: x_15 - 2 hdu_15 <= 0
 c125: u_15 + b_14 + 300 hdu_15 <= 300.275
 c126: - b_14 + b_15 - u_16 <= -0.325
 c127: x_16 - 2 hdu_16 <= 0
 c128: b_14 - b_15 + u_16 + 300 hdu_16 <= 300.325
 c129: - u_17 - b_14 + b_17 <= 0.625
 c130: x_17 - 2 hdu_17 <= 0
 c131: u_17 + b_14 - b_17 + 300 hdu_17 <= 299.375
 c132: - u_18 + b_10 - b_15 <= 1.48636221206247
 c133: x_18 - 2 hdu_18 <= 0
 c134: u_18 - b_10 + b_15 + 300 hdu_18 <= 298.513637787938
 c135: - u_19 + b_14 - b_15 <= -0.475
 c136: x_19 - 2 hdu_19 <= 0
 c137: u_19 - b_14 + b_15 + 300 hdu_19 <= 300.475
 c138: - b_16 + b_17 - u_110 <= -0.525
 c139: x_110 - 2 hdu_110 <= 0
 c140: b_16 - b_17 + u_110 + 300 hdu_110 <= 300.525
 c141: b_14 - b_18 - u_111 <= 1.425
 c142: x_111 - 2 hdu_111 <= 0
 c143: - b_14 + b_18 + u_111 + 300 hdu_111 <= 298.575
 c144: ap_1 - b_19 - u_112 <= 0.375
 c145: x_112 - 2 hdu_112 <= 0
 c146: - ap_1 + b_19 + u_112 + 300 hdu_112 <= 299.625
Bounds
 0 <= u_00 <= 2
 0 <= u_01 <= 1
      u_03 = 0
      u_07 = 0
 0 <= u_012 <= 1
 0 <= u_04 <= 1
 0 <= u_06 <= 2
 0 <= u_010 <= 1
 0 <= u_15 <= 1
 0 <= u_17 <= 3
 0 <= u_11 <= 3
 0 <= u_18 <= 3
 0 <= u_10 <= 2
      u_19 = 0
 0 <= u_14 <= 3
 0 <= x_010 <= 1
 0 <= x_07 <= 1
 0 <= x_00 <= 1
 0 <= hap_1_0 <= 1
 0 <= x_03 <= 1
 0 <= han_2_0 <= 1
 0 <= x_112 <= 1
 0 <= hap_1_1 <= 1
 0 <= x_13 <= 1
 0 <= han_2_1 <= 1
 0 <= x_08 <= 1
 0 <= x_04 <= 1
 0 <= x_01 <= 1
 0 <= hb_00 <= 1
 0 <= x_02 <= 1
 0 <= hb_01 <= 1
 0 <= x_012 <= 1
 0 <= hb_03 <= 1
 0 <= x_011 <= 1
 0 <= x_09 <= 1
 0 <= x_06 <= 1
 0 <= x_05 <= 1
 0 <= hb_04 <= 1
 0 <= hb_05 <= 1
 0 <= hb_06 <= 1
 0 <= hb_08 <= 1
 0 <= hb_09 <= 1
 0 <= x_18 <= 1
 0 <= x_14 <= 1
 0 <= x_11 <= 1
 0 <= x_10 <= 1
 0 <= hb_10 <= 1
 0 <= x_12 <= 1
 0 <= hb_11 <= 1
 0 <= x_111 <= 1
 0 <= x_19 <= 1
 0 <= x_17 <= 1
 0 <= x_16 <= 1
 0 <= x_15 <= 1
 0 <= hb_14 <= 1
 0 <= hb_15 <= 1
 0 <= x_110 <= 1
 0 <= hb_16 <= 1
 0 <= hb_17 <= 1
 0 <= hb_18 <= 1
 0 <= hb_19 <= 1
 0 <= hdu_00 <= 1
 0 <= hdu_01 <= 1
      u_02 = 0
 0 <= hdu_02 <= 1
 0 <= hdu_03 <= 1
 0 <= hdu_04 <= 1
 0 <= u_05 <= 2
 0 <= hdu_05 <= 1
 0 <= hdu_06 <= 1
 0 <= hdu_07 <= 1
 0 <= u_08 <= 2
 0 <= hdu_08 <= 1
 0 <= u_09 <= 1
 0 <= hdu_09 <= 1
 0 <= hdu_010 <= 1
 0 <= u_011 <= 1
 0 <= hdu_011 <= 1
 0 <= hdu_012 <= 1
 0 <= hdu_10 <= 1
 0 <= hdu_11 <= 1
 0 <= u_12 <= 1
 0 <= hdu_12 <= 1
 0 <= u_13 <= 2
 0 <= hdu_13 <= 1
 0 <= hdu_14 <= 1
 0 <= hdu_15 <= 1
 0 <= u_16 <= 3
 0 <= hdu_16 <= 1
 0 <= hdu_17 <= 1
 0 <= hdu_18 <= 1
 0 <= hdu_19 <= 1
 0 <= u_110 <= 1
 0 <= hdu_110 <= 1
 0 <= u_111 <= 2
 0 <= hdu_111 <= 1
 0 <= u_112 <= 1
 0 <= hdu_112 <= 1
Binaries
 hap_1_0  han_2_0  hap_1_1  han_2_1  hb_00  hb_01  hb_03  hb_04  hb_05  hb_06 
 hb_08  hb_09  hb_10  hb_11  hb_14  hb_15  hb_16  hb_17  hb_18  hb_19  hdu_00 
 hdu_01  hdu_02  hdu_03  hdu_04  hdu_05  hdu_06  hdu_07  hdu_08  hdu_09 
 hdu_010  hdu_011  hdu_012  hdu_10  hdu_11  hdu_12  hdu_13  hdu_14  hdu_15 
 hdu_16  hdu_17  hdu_18  hdu_19  hdu_110  hdu_111  hdu_112 
End
